10
0	96	83	100	94	69	12	79	53	57	
96	0	97	95	72	98	33	29	92	49	
83	97	0	78	92	82	38	97	87	46	
100	95	78	0	45	95	46	46	19	87	
94	72	92	45	0	69	68	58	78	68	
69	98	82	95	69	0	1	18	20	71	
12	33	38	46	68	1	0	23	45	65	
79	29	97	46	58	18	23	0	5	87	
53	92	87	19	78	20	45	5	0	63	
57	49	46	87	68	71	65	87	63	0	
